100
120
99
99
98
98
97
97
97
96
93
92
91
91
90
89
88
88
87
86
86
85
85
84
84
83
83
81
80
80
78
76
75
75
74
72
72
71
69
69
68
68
68
68
67
66
66
65
62
61
61
60
60
60
59
58
58
57
57
57
56
56
54
54
53
53
53
52
52
51
50
50
50
49
48
48
46
46
46
46
45
45
43
42
42
41
41
41
38
37
36
36
35
34
34
34
33
33
33
32
30
30
